ObjectiveValue = 5757.328792271;
flow=[(1,6,1)(5,0,0)(5,1,3)(5,2,8)(5,4,0)(5,6,24)(5,7,0)(5,8,0)(5,9,0)(5,11,13)(5,12,0)(5,13,3)(6,1,5)(6,5,4)(6,7,3)(6,10,1)(6,11,29)(7,6,3)(8,9,4)(10,6,2)(10,9,2)(11,5,1)(11,6,17)(11,9,1)(11,10,4)(11,12,6)(12,5,9)(12,6,37)(12,7,1)(12,9,1)(12,10,3)(12,11,0)(12,13,1)(13,12,1)];
